%%%mzn-stat: initTime=0.034401328
%%%mzn-stat: objective=266
%%%mzn-stat: nodes=608
%%%mzn-stat: restarts=0
%%%mzn-stat: peakDepth=289
%%%mzn-stat: solveTime=0.053003849
%%%mzn-stat: variables=806
%%%mzn-stat: propagators=567
%%%mzn-stat: failures=275
%%%mzn-stat: propagations=83063
%%%mzn-stat: nogoods=275
%%%mzn-stat: AverageConflictSize=3.3163636363636364
%%%mzn-stat: NumUnitNogoodsLearned=265
%%%mzn-stat: AverageLearnedNogoodLength=1.9418181818181819
%%%mzn-stat: AverageBacktrackAmount=0
%%%mzn-stat: AverageLbd=1.1018181818181818
%%%mzn-stat-end
maxleg = 266;
succ = array1d(1..50,[48, 37, 42, 38, 14, 19, 6, 31, 47, 50, 40, 28, 16, 10, 46, 3, 43, 15, 33, 29, 11, 39, 21, 45, 13, 25, 5, 17, 41, 26, 32, 30, 27, 1, 49, 18, 4, 20, 12, 44, 35, 23, 36, 9, 34, 24, 7, 8, 22, 2]);
% time elapsed: 5.14 s
----------
==========
% time elapsed: 5.14 s
%%%mzn-stat: initTime=0.034401328
%%%mzn-stat: objective=266
%%%mzn-stat: nodes=608
%%%mzn-stat: restarts=0
%%%mzn-stat: peakDepth=289
%%%mzn-stat: solveTime=0.053012657
%%%mzn-stat: variables=806
%%%mzn-stat: propagators=567
%%%mzn-stat: failures=275
%%%mzn-stat: propagations=83063
%%%mzn-stat: nogoods=275
%%%mzn-stat: AverageConflictSize=3.3163636363636364
%%%mzn-stat: NumUnitNogoodsLearned=265
%%%mzn-stat: AverageLearnedNogoodLength=1.9418181818181819
%%%mzn-stat: AverageBacktrackAmount=0
%%%mzn-stat: AverageLbd=1.1018181818181818
%%%mzn-stat-end
